Cars = 1..200;
Options = 1..5;
Classes = 1..23;
sequenceMinCapacity = [0, 0, 0, 0, 0];
sequenceMaxCapacity = [1, 2, 1, 2, 1];
sequenceSize = [2, 3, 3, 5, 5];
numOrdered = [3, 1, 49, 13, 3, 2, 33, 1, 1, 2, 8, 1, 1, 14, 1, 3, 35, 10, 4, 10, 1, 2, 2];
classHasOption = [|false,  true, false,  true,  true
                  |false,  true,  true, false, false
                  | true, false, false, false, false
                  | true,  true, false, false, false
                  | true, false,  true,  true, false
                  | true, false, false, false,  true
                  |false, false, false,  true, false
                  |false, false,  true,  true,  true
                  | true,  true,  true, false, false
                  |false,  true,  true,  true, false
                  | true, false,  true, false, false
                  | true,  true,  true,  true, false
                  |false, false,  true, false,  true
                  |false, false, false, false,  true
                  | true, false, false,  true, false
                  | true,  true, false,  true, false
                  |false,  true, false, false, false
                  |false,  true, false,  true, false
                  |false, false,  true,  true, false
                  |false, false,  true, false, false
                  |false,  true,  true,  true,  true
                  | true,  true, false, false,  true
                  |false,  true, false, false,  true|];
optionOrdering = [1, 5, 4, 3, 2];
